c --- [ banner ] -------------------------------------------------------------
c 
c CaDiCaL Radically Simplified CDCL SAT Solver
c Copyright (c) 2016-2021 A. Biere, M. Fleury, N. Froleyks
c 
c Version 1.5.2 a5f15211db36c3956764e18194dd5bd63bf3b5e6
c g++ (GCC) 9.3.0 -Wall -Wextra -O3 -DNDEBUG
c Fri Oct 21 01:27:37 EDT 2022 Linux gra-login3 3.10.0-1160.66.1.el7.x86_64 x86_64
c 
c --- [ limit ] --------------------------------------------------------------
c 
c setting conflict limit to 200000 conflicts (due to '200000')
c 
c --- [ parsing input ] ------------------------------------------------------
c 
c reading DIMACS file from '33.cubes1391.adj'
c opening file to read '33.cubes1391.adj'
c found 'p cnf 6160 1595476' header
c parsed 1595476 clauses in 19.08 seconds process time
c closing file '33.cubes1391.adj'
c after reading 1457566780 bytes 1390.0 MB
c 
c --- [ options ] ------------------------------------------------------------
c 
c all options are set to their default value
c 
c --- [ solving ] ------------------------------------------------------------
c 
c time measured in process time since initialization
c 
c  seconds    reductions  redundant   irredundant
c          MB     restarts       trail       variables
c            level   conflicts       glue         remaining
c 
c * 19.08 1367  0 0   0    0    0  0% 0 1595422 2373 39%
c { 20.30 1434  0 0   0    0    0  0% 0 1595422 2373 39%
c i 20.49 1439 827 0   0   11   10 32% 1 1595422 2366 38%
c i 22.09 1476 338 0   5   42   32 24% 8 1595422 2359 38%
c i 22.13 1478 314 0   6   46   35 25% 9 1595422 2358 38%
c i 22.39 1479 278 0   6   62   50 24% 7 1595422 2357 38%
c i 22.81 1482 265 0   7   72   55 24% 13 1595422 2352 38%
c i 22.86 1482 264 0   8   73   55 24% 13 1595422 2351 38%
c i 22.93 1482 259 0   9   76   57 24% 15 1595422 2350 38%
c i 22.94 1482 253 0   9   78   58 25% 16 1595422 2349 38%
c i 22.96 1482 250 0  10   79   58 25% 15 1595422 2348 38%
c i 22.99 1482 247 0  10   80   58 25% 15 1595422 2347 38%
c i 23.02 1482 240 0  11   83   60 25% 15 1595422 2346 38%
c i 23.75 1489 180 0  23  141   98 25% 23 1595422 2345 38%
c i 23.79 1489 178 0  23  143   99 25% 22 1595422 2341 38%
c i 24.26 1490 147 0  29  179  119 25% 22 1595422 2336 38%
c i 24.35 1490 145 0  29  182  121 25% 22 1595422 2335 38%
c i 24.38 1490 145 0  29  187  125 25% 22 1595422 2334 38%
c i 24.81 1491 141 0  37  221  156 26% 27 1595422 2333 38%
c - 28.76 1410 119 1  54  302  222 26% 30 164613 2333 38%
c 
c  seconds     reductions  redundant   irredundant
c          MB      restarts       trail       variables
c             level   conflicts       glue         remaining
c 
c i 29.00 1350 114 1  60  327  245 26% 30 164613 2332 38%
c i 29.05 1350 114 1  61  334  250 26% 30 164613 2331 38%
c i 29.10 1350 113 1  66  350  265 26% 30 164613 2330 38%
c i 29.14 1350 110 1  69  365  275 26% 30 164613 2329 38%
c i 29.17 1350 101 1  71  415  312 26% 30 164613 2328 38%
c i 29.19 1350 95 1  71  454  339 27% 29 164613 2327 38%
c i 29.20 1350 94 1  71  458  342 27% 29 164613 2326 38%
c i 29.20 1350 92 1  71  478  357 27% 29 164613 2325 38%
c i 29.21 1350 90 1  71  489  365 27% 29 164613 2324 38%
c i 29.25 1350 84 1  71  556  410 27% 28 164613 2320 38%
c i 29.27 1350 80 1  71  596  442 27% 28 164613 2316 38%
c i 29.30 1350 73 1  71  694  521 27% 27 164613 2315 38%
c i 29.31 1350 73 1  71  696  522 27% 27 164613 2314 38%
c i 29.33 1350 73 1  71  701  525 27% 27 164613 2313 38%
c i 29.34 1350 73 1  71  703  526 27% 27 164613 2312 38%
c i 29.42 1350 74 1  79  747  562 27% 30 164613 2311 38%
c i 29.57 1350 74 1  89  789  597 27% 29 164613 2310 38%
c i 29.76 1350 75 1 104  850  643 27% 31 164613 2309 37%
c i 29.78 1350 75 1 108  862  653 27% 31 164613 2308 37%
c i 29.78 1350 75 1 108  864  654 27% 31 164613 2307 37%
c 
c  seconds    reductions  redundant   irredundant
c          MB     restarts       trail       variables
c            level   conflicts       glue         remaining
c 
c i 29.79 1350 75 1 108  866  655 27% 31 164613 2306 37%
c i 29.81 1350 74 1 109  887  675 27% 31 164613 2305 37%
c i 29.81 1350 74 1 109  889  676 27% 31 164613 2304 37%
c i 29.82 1350 75 1 109  899  684 27% 31 164613 2303 37%
c i 29.83 1350 75 1 110  901  685 27% 31 164613 2302 37%
c i 29.86 1350 76 1 111  911  692 27% 31 164613 2301 37%
c } 30.28 1350 77 1 128 1000  770 27% 32 164613 2301 37%
c [ 30.28 1350  0 1 128 1000  770  0% 0 164613 2301 37%
c O 30.28 1350 35 1 128 1002  771 20% 5 164613 2301 37%
c i 30.28 1350 35 1 128 1002  771 20% 5 164613 2276 37%
c i 30.33 1350 17 1 128 1010  777 27% 7 164613 2275 37%
c i 30.34 1350 17 1 128 1020  786 30% 10 164613 2274 37%
c i 30.34 1350 19 1 128 1022  787 30% 12 164613 2273 37%
c - 30.62 1414 27 2 128 1031  696 30% 19 163909 2273 37%
c i 30.64 1414 34 2 128 1042  704 30% 22 163909 2272 37%
c i 30.64 1414 34 2 128 1044  705 30% 22 163909 2271 37%
c i 30.65 1414 35 2 128 1047  707 30% 22 163909 2270 37%
c i 30.66 1414 38 2 128 1054  713 30% 24 163909 2269 37%
c i 30.66 1414 37 2 128 1055  713 30% 24 163909 2268 37%
c i 30.66 1414 37 2 128 1057  714 30% 24 163909 2267 37%
c 
c  seconds    reductions  redundant   irredundant
c          MB     restarts       trail       variables
c            level   conflicts       glue         remaining
c 
c i 30.67 1414 38 2 128 1069  724 30% 22 163909 2266 37%
c i 30.67 1414 37 2 128 1070  724 30% 22 163909 2265 37%
c i 30.67 1414 37 2 128 1073  725 30% 22 163909 2264 37%
c i 30.67 1414 36 2 128 1074  725 30% 22 163909 2263 37%
c i 30.68 1414 37 2 128 1097  743 30% 24 163909 2262 37%
c i 30.68 1414 37 2 128 1101  746 30% 24 163909 2261 37%
c i 30.69 1414 36 2 128 1115  756 31% 24 163909 2260 37%
c i 30.69 1414 36 2 128 1118  757 31% 24 163909 2259 37%
c i 30.69 1414 35 2 128 1129  767 31% 24 163909 2258 37%
c i 30.69 1414 35 2 128 1131  766 31% 24 163909 2257 37%
c i 30.69 1414 34 2 128 1132  766 30% 24 163909 2256 37%
c i 30.69 1414 34 2 128 1133  766 30% 24 163909 2255 37%
c i 30.69 1414 34 2 128 1134  766 30% 23 163909 2254 37%
c i 30.69 1414 34 2 128 1135  766 30% 23 163909 2253 37%
c i 30.69 1414 33 2 128 1137  765 30% 23 163909 2252 37%
c i 30.69 1414 33 2 128 1138  765 30% 23 163909 2251 37%
c i 30.69 1414 33 2 128 1139  765 30% 23 163909 2250 37%
c i 30.70 1414 32 2 128 1179  791 31% 23 163909 2249 37%
c i 30.70 1414 31 2 128 1180  791 31% 23 163909 2248 36%
c i 30.70 1414 31 2 128 1181  791 31% 23 163909 2247 36%
c 
c  seconds    reductions  redundant   irredundant
c          MB     restarts       trail       variables
c            level   conflicts       glue         remaining
c 
c i 30.70 1414 31 2 128 1182  791 31% 23 163909 2246 36%
c i 30.70 1414 31 2 128 1183  791 31% 22 163909 2245 36%
c i 30.70 1414 31 2 128 1184  791 31% 22 163909 2244 36%
c i 30.70 1414 31 2 128 1185  791 31% 22 163909 2243 36%
c i 30.70 1414 30 2 128 1186  791 30% 22 163909 2242 36%
c i 30.71 1414 30 2 128 1197  798 30% 22 163909 2241 36%
c i 30.72 1414 30 2 128 1287  869 31% 22 163909 2240 36%
c i 30.72 1414 30 2 128 1288  869 31% 22 163909 2239 36%
c i 30.73 1414 30 2 128 1292  871 31% 22 163909 2238 36%
c i 30.73 1414 30 2 128 1293  871 31% 22 163909 2237 36%
c i 30.73 1414 30 2 128 1294  871 31% 22 163909 2236 36%
c - 31.07 1411 23 3 129 2126 1100 31% 19 163800 2236 36%
c ] 31.39 1411 24 3 129 3001 1689 50% 20 163800 2236 36%
c { 31.39 1411 77 3 129 3001 1689 75% 32 163800 2236 36%
c F 31.42 1411 77 3 130 3003 1690 74% 32 163800 2236 36%
c i 31.42 1411 77 3 130 3003 1690 74% 32 163800 2216 36%
c i 31.54 1411 62 3 132 3381 1955 67% 28 163800 2215 36%
c i 31.59 1411 62 3 137 3463 2018 66% 28 163800 2214 36%
c i 31.64 1411 63 3 145 3491 2043 66% 29 163800 2213 36%
c i 31.74 1411 64 3 158 3539 2081 65% 29 163800 2212 36%
c 
c  seconds    reductions  redundant   irredundant
c          MB     restarts       trail       variables
c            level   conflicts       glue         remaining
c 
c - 32.01 1351 64 4 170 3583 1547 64% 30 140193 2212 36%
c i 32.16 1351 65 4 180 3640 1597 63% 29 140193 2210 36%
c i 32.25 1351 65 4 183 3680 1622 62% 29 140193 2209 36%
c i 32.27 1351 65 4 183 3702 1641 62% 29 140193 2208 36%
c i 32.33 1351 65 4 185 3743 1678 62% 29 140193 2207 36%
c i 32.41 1351 66 4 190 3796 1727 61% 29 140193 2206 36%
c i 32.46 1351 66 4 194 3837 1758 61% 30 140193 2205 36%
c i 32.95 1351 65 4 254 4243 2093 57% 30 140193 2204 36%
c i 32.95 1351 65 4 254 4246 2095 57% 30 140193 2203 36%
c i 33.13 1351 58 4 262 4745 2475 56% 28 140193 2202 36%
c i 33.24 1351 58 4 275 4872 2580 55% 28 140193 2201 36%
c i 33.35 1351 57 4 286 5000 2689 55% 28 140193 2200 36%
c d 33.54 1351 57 4 286 5000 2689 55% 28 140142 2192 36%
c 2 33.56 1351 57 4 286 5000 3636 55% 28 140117 2192 36%
c p 35.10 1351 57 4 286 5000 6011 55% 28 140117 2169 35%
c d 35.21 1351 57 4 286 5000 5982 55% 28 140047 2168 35%
c - 35.57 1351 54 5 286 5303 2063 54% 27 140047 2168 35%
c # 35.97 1351 50 5 307 6005 2570 53% 26 140047 2168 35%
c } 36.16 1351 50 5 309 6215 2726 52% 25 140047 2168 35%
c 1 36.16 1351 50 5 309 6215 2726 52% 25 140047 2168 35%
c 
c --- [ writing output ] -----------------------------------------------------
c 
c writing simplified CNF to DIMACS file 'simp/33.cubes1391.adj.simp1'
c 
c  seconds    reductions  redundant   irredundant
c          MB     restarts       trail       variables
c            level   conflicts       glue         remaining
c 
c * 36.16 1351 50 5 309 6215 2726 52% 25 140047 2168 35%
c opening file to write 'simp/33.cubes1391.adj.simp1'
c writing 'p cnf 6160 140047' header
c closing file 'simp/33.cubes1391.adj.simp1'
c after writing 56630279 bytes 54.0 MB
c wrote 140047 clauses in 0.43 seconds process time
c 
c --- [ writing extension ] --------------------------------------------------
c 
c writing extension stack to 'simp/33.cubes1391.adj.ext1'
c opening file to write 'simp/33.cubes1391.adj.ext1'
c closing file 'simp/33.cubes1391.adj.ext1'
c after writing 12799 bytes 0.0 MB
c wrote 857 witnesses in 0.00 seconds process time
c 
c --- [ result ] -------------------------------------------------------------
c 
s SATISFIABLE
c 
c --- [ run-time profiling ] -------------------------------------------------
c 
c process time taken by individual solving procedures
c (percentage relative to process time for solving)
c 
c        19.08  111.70% parse
c        15.20   89.03% search
c        12.87   75.35% unstable
c         1.87   10.97% simplify
c         1.54    9.00% probe
c         1.22    7.17% lucky
c         1.11    6.51% stable
c         0.02    0.12% ternary
c   =================================
c        17.08   46.67% solve
c 
c last line shows process time for solving
c (percentage relative to total process time)
c 
c --- [ statistics ] ---------------------------------------------------------
c 
c chronological:              1757        28.27 %  of conflicts
c conflicts:                  6215       363.93    per second
c decisions:                 39448      2309.93    per second
c fixed:                       839        13.62 %  of all variables
c learned:                    6033        97.07 %  per conflict
c learned_lits:            1018582       100.00 %  learned literals
c minimized:                     0         0.00 %  learned literals
c shrunken:                 522231        51.27 %  learned literals
c minishrunken:             110357        10.83 %  learned literals
c propagations:            1192015         0.07 M  per second
c reduced:                    1917        30.84 %  per conflict
c rephased:                      3      2071.67    interval
c restarts:                    309        20.11    interval
c stabilizing:                   1        32.20 %  of conflicts
c substituted:                   9         0.15 %  of all variables
c subsumed:                   1353         0.04 %  of all clauses
c ternary:                     947         0.57 %  of resolved
c weakened:                     18         2.00    average size
c 
c seconds are measured in process time for solving
c 
c --- [ resources ] ----------------------------------------------------------
c 
c total process time since initialization:        36.59    seconds
c total real time since initialization:           36.67    seconds
c maximum resident set size of process:         1494.17    MB
c 
c --- [ shutting down ] ------------------------------------------------------
c 
c exit 10
WARNING! DIMACS header mismatch: wrong number of variables.
============================[ Problem Statistics ]=============================
|                                                                             |
|  Number of variables:          6120                                         |
|  Number of clauses:          140047                                         |
|  Parse time:                   0.72 s                                       |
|  Simplification time:          0.01 s                                       |
|                                                                             |
============================[ Search Statistics ]====================================================
| Conflicts |          ORIGINAL         |          LEARNT          | Num Sols |      SUBGRAPHS      |
|           |    Vars  Clauses Literals |    Limit  Clauses Lit/Cl |          | Canonical Noncanon. |
=====================================================================================================
|       123 |    6026   140070 12250319 |     2000      123     61 |        0 |        30        23 |
|       281 |    6026   140078 12250518 |     2000      281     88 |        0 |        36        31 |
|       525 |    6026   140097 12250978 |     2000      525     96 |        0 |        49        50 |
|      1147 |    6026   140382 12256783 |     2000     1147     68 |        0 |       131       335 |
|      3596 |    6026   142325 12294657 |     3600     2596     29 |        0 |       453      2278 |
|      5110 |    6026   143080 12311279 |     5002     2312     26 |        0 |       654      3033 |
|      6962 |    6026   143793 12326128 |     5002     4164     44 |        0 |       851      3746 |
|     10169 |    6026   145292 12355767 |     6306     4875     34 |        0 |      1268      5245 |
|     13161 |    6026   145722 12365721 |     7560     4721     39 |        0 |      1382      5675 |
|     19514 |    6026   148231 12414253 |     8781     7295     55 |        0 |      1800      8184 |
|     26265 |    6026   149216 12431463 |     9993     9658     60 |        0 |      2107      9169 |
|     38786 |    6026   153088 12504942 |    12403    11589     50 |        0 |      3041     13041 |
|     57232 |    6026   158560 12608113 |    16007     9639     34 |        0 |      4828     18513 |
|     85103 |    6026   166970 12767455 |    19622    11725     34 |        0 |      7033     26923 |
|    120625 |    6026   173300 12882145 |    23216    16041     41 |        0 |      9249     33253 |
|    176226 |    6026   185112 13080083 |    28010    21636     52 |        0 |     12550     45065 |
|    275108 |    6026   218310 13568316 |    35207    27515     54 |        0 |     20548     78263 |
|    402258 |    6026   246934 13989170 |    42411    40069     59 |        0 |     29485    106887 |
|    612290 |    6026   309177 14797413 |    53205    37695     45 |        0 |     51534    169130 |
|    908045 |    5984   349063 15249954 |    63906    39151     28 |        0 |     80344    243202 |
=====================================================================================================
Number of solutions   : 0
Canonical subgraphs   : 113192         (29 /sec)
          order  3    : 1              (125000 /sec)
          order  4    : 1              (500000 /sec)
          order  5    : 1              (200000 /sec)
          order  6    : 1              (52632 /sec)
          order  7    : 1              (8403 /sec)
          order  8    : 2              (1364 /sec)
          order  9    : 7              (354 /sec)
          order 10    : 32             (114 /sec)
          order 11    : 149            (62 /sec)
          order 12    : 853            (51 /sec)
          order 13    : 5111           (65 /sec)
          order 14    : 19903          (52 /sec)
          order 15    : 31619          (32 /sec)
          order 16    : 25634          (26 /sec)
          order 17    : 14877          (21 /sec)
          order 18    : 9631           (21 /sec)
          order 19    : 3837           (21 /sec)
          order 20    : 908            (24 /sec)
          order 21    : 624            (25 /sec)
          order 22    : 0              (-nan /sec)
Noncanonical subgraphs: 374057         (274 /sec)
          order  3    : 0              (-nan /sec)
          order  4    : 0              (-nan /sec)
          order  5    : 0              (-nan /sec)
          order  6    : 0              (-nan /sec)
          order  7    : 0              (-nan /sec)
          order  8    : 0              (-nan /sec)
          order  9    : 0              (-nan /sec)
          order 10    : 0              (-nan /sec)
          order 11    : 0              (-nan /sec)
          order 12    : 0              (-nan /sec)
          order 13    : 22421          (2480 /sec)
          order 14    : 23341          (3034 /sec)
          order 15    : 292979         (280 /sec)
          order 16    : 21713          (205 /sec)
          order 17    : 12806          (77 /sec)
          order 18    : 50             (260 /sec)
          order 19    : 8              (251 /sec)
          order 20    : 5              (182 /sec)
          order 21    : 0              (-nan /sec)
Canonicity checking   : 3888.69 s
Noncanonicity checking: 1364.41 s
Total canonicity time : 5253.1 s
database reductions   : 63
restarts              : 2552
conflicts             : 1307771        (234 /sec)
decisions             : 2010748        (0.00 % random) (361 /sec)
propagations          : 130199923      (23346 /sec)
conflict literals     : 108063752      (53.76 % deleted)
actual reward         : 0.123630
Memory used           : 247.00 MB
CPU time              : 5577.01 s

UNSATISFIABLE
